param set_len = 18;
param target_sum = 161708583;
param values := [0] 33450101 [1] 23746748 [2] 3028282 [3] 15494999 [4] 5318395 [5] 5191414 [6] 24021703 [7] 24678779 [8] 22419142 [9] 1815654 [10] 28645756 [11] 12563877 [12] 16785313 [13] 15804506 [14] 16546433 [15] 25726728 [16] 1370726 [17] 1541006 ;
